6,4	0,0	5,4	11,6	0,0	0,0	0,0	0,0	0,0	16,9
19,3	13,2	0,0	16,7	12,6	0,0	0,0	16,4	0,0	0,0
0,0	0,0	7,6	0,0	6,6	14,6	0,0	0,0	9,8	0,0
11,9	0,0	11,8	0,0	0,0	0,0	10,6	0,0	0,0	0,0
0,0	5,2	0,0	18,7	18,1	0,0	0,0	6,8	0,0	0,0
0,0	14,1	7,9	0,0	9,9	18,3	0,0	0,0	9,7	0,0
0,0	12,7	0,0	15,5	0,0	0,0	13,4	0,0	0,0	15,9
7,1	0,0	11,4	0,0	0,0	0,0	0,0	0,0	0,0	11,6
0,0	16,8	0,0	8,6	15,8	0,0	0,0	17,8	0,0	0,0
0,0	0,0	9,1	0,0	0,0	12,9	14,1	0,0	0,0	6,8
									
4,2	4,5	2,8	3,1	2,8	3,5	2,8	4,8	2,9	2,6
